* #variable= 60 #constraint= 2
****************************************
* begin normalizer comments
* category= SAT/UNSAT-SMALLINT
* WARNING: coefficients have been reduced to fit in the SMALLINT category. The semantics of the initial constraints IS NOT preserved !
* end normalizer comments
****************************************
-9 x1 -18 x2 -35 x3 -70 x4 -139 x5 -277 x6 -554 x7 -1108 x8 -2216 x9 -4432 x10 -8864 x11 -17728 x12 -35455 x13 -9 x14 -18 x15 -35 x16 -70 x17 -139 x18 -278 x19 -555 x20 -1109 x21 -2217 x22 -4433 x23 -8865 x24 -17729 x25 -35458 x26 -26 x27 -52 x28 -104 x29 -208 x30 -416 x31 -832 x32 -1663 x33 -3325 x34 -6649 x35 -13298 x36 -26595 x37 -53190 x38 -44 x39 -87 x40 -174 x41 -347 x42 -693 x43 -1386 x44 -2771 x45 -5541 x46 -11081 x47 -22161 x48 -44322 x49 -61 x50 -122 x51 -243 x52 -485 x53 -970 x54 -1940 x55 -3879 x56 -7757 x57 -15513 x58 -31026 x59 -62052 x60 >= -63484 ;
+9 x1 +18 x2 +35 x3 +70 x4 +139 x5 +277 x6 +554 x7 +1108 x8 +2216 x9 +4432 x10 +8864 x11 +17728 x12 +35455 x13 +9 x14 +18 x15 +35 x16 +70 x17 +139 x18 +278 x19 +555 x20 +1109 x21 +2217 x22 +4433 x23 +8865 x24 +17729 x25 +35458 x26 +26 x27 +52 x28 +104 x29 +208 x30 +416 x31 +832 x32 +1663 x33 +3325 x34 +6649 x35 +13298 x36 +26595 x37 +53190 x38 +44 x39 +87 x40 +174 x41 +347 x42 +693 x43 +1386 x44 +2771 x45 +5541 x46 +11081 x47 +22161 x48 +44322 x49 +61 x50 +122 x51 +243 x52 +485 x53 +970 x54 +1940 x55 +3879 x56 +7757 x57 +15513 x58 +31026 x59 +62052 x60 >= 63484 ;
